
Gurobi 9.0.1 (linux64) logging started Thu Apr 30 14:50:54 2020

Gurobi Optimizer version 9.0.1 build v9.0.1rc0 (linux64)
Optimize a model with 12677 rows, 12060 columns and 201690 nonzeros
Model fingerprint: 0xff45d813
Variable types: 0 continuous, 12060 integer (12032 binary)
Coefficient statistics:
  Matrix range     [1e+00, 1e+01]
  Objective range  [1e+00, 1e+02]
  Bounds range     [1e+00, 1e+00]
  RHS range        [1e+00, 1e+00]

User MIP start produced solution with objective 980 (0.27s)
Loaded user MIP start with objective 980

Presolve removed 3752 rows and 3270 columns
Presolve time: 3.21s
Presolved: 8925 rows, 8790 columns, 167925 nonzeros
Variable types: 0 continuous, 8790 integer (8764 binary)

Root simplex log...

Iteration    Objective       Primal Inf.    Dual Inf.      Time
    2215    4.2300010e+02   3.632849e+03   0.000000e+00      5s
    5575    4.6030077e+02   5.790834e+03   0.000000e+00     10s
    8116    4.6526201e+02   6.408818e+01   0.000000e+00     15s
    9916    4.6547937e+02   0.000000e+00   0.000000e+00     19s

Root relaxation: objective 4.654794e+02, 9916 iterations, 15.54 seconds
Total elapsed time = 20.15s

    Nodes    |    Current Node    |     Objective Bounds      |     Work
 Expl Unexpl |  Obj  Depth IntInf | Incumbent    BestBd   Gap | It/Node Time

     0     0  465.47937    0 2068  980.00000  465.47937  52.5%     -   22s
     0     0  496.61698    0 1988  980.00000  496.61698  49.3%     -   67s
     0     0  496.76889    0 1935  980.00000  496.76889  49.3%     -   75s
     0     0  496.76970    0 1894  980.00000  496.76970  49.3%     -   76s
     0     0  515.86700    0 2008  980.00000  515.86700  47.4%     -  157s
     0     0  521.87011    0 2051  980.00000  521.87011  46.7%     -  202s
     0     0  522.06913    0 2062  980.00000  522.06913  46.7%     -  221s
     0     0  522.07087    0 2004  980.00000  522.07087  46.7%     -  222s
     0     0  531.60659    0 2047  980.00000  531.60659  45.8%     -  296s
H    0     0                     948.0000000  531.60659  43.9%     -  298s
     0     0  532.37495    0 2038  948.00000  532.37495  43.8%     -  324s
     0     0  532.41120    0 2028  948.00000  532.41120  43.8%     -  332s
     0     0  532.49567    0 2069  948.00000  532.49567  43.8%     -  342s
     0     0  532.50757    0 2032  948.00000  532.50757  43.8%     -  347s
     0     0  534.26228    0 2121  948.00000  534.26228  43.6%     -  451s
     0     0  534.59616    0 2129  948.00000  534.59616  43.6%     -  475s
     0     0  534.91350    0 2072  948.00000  534.91350  43.6%     -  507s
     0     0  534.95498    0 2123  948.00000  534.95498  43.6%     -  518s
     0     0  534.96384    0 2108  948.00000  534.96384  43.6%     -  523s
     0     0  535.65283    0 2111  948.00000  535.65283  43.5%     -  579s
     0     0  535.82726    0 2125  948.00000  535.82726  43.5%     -  603s
     0     0  535.83209    0 2134  948.00000  535.83209  43.5%     -  609s
     0     0  536.55728    0 2190  948.00000  536.55728  43.4%     -  681s
     0     0  536.72593    0 2186  948.00000  536.72593  43.4%     -  702s
     0     0  536.73918    0 2178  948.00000  536.73918  43.4%     -  708s
     0     0  537.10675    0 2195  948.00000  537.10675  43.3%     -  778s
     0     0  537.17868    0 2181  948.00000  537.17868  43.3%     -  796s
     0     0  537.18348    0 2178  948.00000  537.18348  43.3%     -  800s
     0     0  537.51982    0 2160  948.00000  537.51982  43.3%     -  838s
     0     0  537.65980    0 2166  948.00000  537.65980  43.3%     -  861s
     0     0  537.67315    0 2194  948.00000  537.67315  43.3%     -  869s
     0     0  538.18976    0 2151  948.00000  538.18976  43.2%     -  907s
     0     0  538.24351    0 2167  948.00000  538.24351  43.2%     -  925s
     0     0  538.24883    0 2192  948.00000  538.24883  43.2%     -  931s
     0     0  538.62053    0 2140  948.00000  538.62053  43.2%     -  980s
     0     0  538.66803    0 2152  948.00000  538.66803  43.2%     -  998s
     0     0  538.68593    0 2193  948.00000  538.68593  43.2%     - 1006s
     0     0  539.45190    0 2198  948.00000  539.45190  43.1%     - 1045s
     0     0  539.51003    0 2213  948.00000  539.51003  43.1%     - 1063s
     0     0  539.51823    0 2212  948.00000  539.51823  43.1%     - 1069s
     0     0  539.66014    0 2208  948.00000  539.66014  43.1%     - 1092s
     0     0  539.66014    0 2191  948.00000  539.66014  43.1%     - 1100s
     0     2  539.67064    0 2179  948.00000  539.67064  43.1%     - 1184s
     1     3  540.35258    1 2078  948.00000  539.67064  43.1% 13865 1236s
     2     4  546.14169    1 1877  948.00000  540.35258  43.0% 35146 1438s
     3     5  541.29774    2 2070  948.00000  540.35258  43.0% 28248 1492s
     4     6  545.94887    2 1904  948.00000  541.29774  42.9% 28934 1600s
     5     7  541.55131    3 2051  948.00000  541.29774  42.9% 24647 1626s
     6     8  575.60546    3 1931  948.00000  541.55193  42.9% 38687 1993s
     7     9  542.12669    4 2034  948.00000  541.55272  42.9% 34587 2026s
     8    10  566.52595    4 1789  948.00000  542.12669  42.8% 38598 2306s
     9    11  542.26649    5 2014  948.00000  542.12669  42.8% 34906 2321s
    10    12  558.14210    5 1891  948.00000  542.26649  42.8% 35261 2447s
    11    13  543.07240    6 1962  948.00000  542.26649  42.8% 33597 2495s
    12    14  555.94647    6 1951  948.00000  543.07240  42.7% 34074 2613s
    13    15  543.26532    7 1954  948.00000  543.07240  42.7% 31823 2624s
    14    16  577.87740    7 1832  948.00000  543.26796  42.7% 32381 2754s
    15    17  543.43353    8 1958  948.00000  543.26857  42.7% 30692 2773s
    16    18  543.72545    9 1911  948.00000  543.26857  42.7% 29107 2788s
    17    19  561.21597   10 1733  948.00000  543.26857  42.7% 29152 2877s
    18    20  544.15824   10 1951  948.00000  543.26857  42.7% 28034 2901s
    19    21  576.19609   11 1897  948.00000  543.26857  42.7% 29265 3035s
    20    22  544.41504   11 1926  948.00000  543.26857  42.7% 28291 3068s
    21    23  584.42761   12 1895  948.00000  543.26857  42.7% 29894 3279s
    22    24  545.25561   12 2006  948.00000  543.26857  42.7% 29043 3338s
    23    25  584.00294   13 1914  948.00000  543.26857  42.7% 30076 3498s
    24    26  545.71361   13 1972  948.00000  543.26857  42.7% 29530 3564s

Cutting planes:
  Cover: 2
  MIR: 45
  StrongCG: 3
  GUB cover: 1
  Zero half: 44
  RLT: 1290

Explored 25 nodes (1018045 simplex iterations) in 3600.02 seconds
Thread count was 1 (of 40 available processors)

Solution count 2: 948 980 

Time limit reached
Best objective 9.480000000000e+02, best bound 5.440000000000e+02, gap 42.6160%

User-callback calls 33822, time in user-callback 0.07 sec
